57
29
0 29 30 32 34 35 39 40 41 42 44 49 50 53 54
1 29 30 32 33 34 35 38 39 42 44 45 47 48 49 50 53 55 56
2 29 30 31 34 39 42 44 45 46 48 49 50 53 56
3 29 32 33 34 35 36 39 42 44 45 48 49 50 53 55
4 29 30 32 33 35 37 38 39 41 42 44 45 46 48 50 52 53
5 29 32 35 38 44 45 46 47 48 49 50 51 53
6 29 34 38 42 46 48 49 50 51 53
7 29 32 33 35 36 38 39 41 44 45 48 50 52 53 56
8 32 35 42 44 45 49 50 54 56
9 29 30 32 33 34 35 39 40 42 44 47 49 53 54 56
10 35 38 39 40 41 42 45 46 51 56
11 30 32 36 39 42 44 45 46 48 49 50 53 54 55 56
12 29 31 33 34 35 38 39 41 43 48 53
13 29 30 35 36 37 39 41 44 45 46 48 50 51 55 56
14 30 32 34 38 44 46 48 56
15 29 31 32 33 34 35 36 38 41 49 50 51 53 56
16 29 31 33 36 37 38 45 48 49
17 29 30 32 36 37 38 39 44 46 53 55 56
18 29 31 33 35 39 40 41 42 46 49 50 55
19 33 34 39 42 44 45 46 49 53
20 29 35 42 44 48 53 54 55
21 34 51 56
22 30 34 36 41 43 55
23 31 35 38 39 41
24 30 34 42 45 49 53 54
25 35 36 52
26 41 49
27 43
28
